p cnf 152 202
-7 17 29 51 0
-7 17 29 -51 0
17 -29 43 52 0
17 -29 43 -52 0
17 -29 -43 53 0
17 -29 -43 -53 0
4 15 -17 54 0
4 15 -17 -54 0
-7 8 -15 55 0
-7 8 -15 -55 0
4 -8 -15 56 0
4 -8 -15 -56 0
-4 -7 -17 57 0
-4 -7 -17 -57 0
3 7 41 58 0
3 7 41 -58 0
3 15 -41 59 0
3 15 -41 -59 0
3 7 -41 60 0
3 7 -41 -60 0
-3 7 -31 61 0
-3 7 -31 -61 0
-1 31 41 62 0
-1 31 41 -62 0
-1 -3 31 63 0
-1 -3 31 -63 0
1 -3 28 64 0
1 -3 28 -64 0
1 -8 -28 65 0
1 -8 -28 -65 0
1 25 -28 66 0
1 25 -28 -66 0
14 -25 -28 67 0
14 -25 -28 -67 0
-14 30 43 68 0
-14 30 43 -68 0
-25 -30 43 69 0
-25 -30 43 -69 0
14 -39 46 70 0
14 -39 46 -70 0
-14 -39 46 71 0
-14 -39 46 -71 0
-25 -39 -46 72 0
-25 -39 -46 -72 0
-5 -14 -43 73 0
-5 -14 -43 -73 0
5 9 -43 74 0
5 9 -43 -74 0
-4 5 -9 75 0
-4 5 -9 -75 0
-9 45 46 76 0
-9 45 46 -76 0
5 45 -46 77 0
5 45 -46 -77 0
-9 -20 -45 78 0
-9 -20 -45 -78 0
2 31 -45 79 0
2 31 -45 -79 0
2 20 -31 80 0
2 20 -31 -80 0
-2 -17 -45 81 0
-2 -17 -45 -81 0
-2 20 -24 82 0
-2 20 -24 -82 0
-2 -18 24 83 0
-2 -18 24 -83 0
18 24 -42 84 0
18 24 -42 -84 0
24 42 -47 85 0
24 42 -47 -85 0
13 18 -48 86 0
13 18 -48 -86 0
-13 42 -48 87 0
-13 42 -48 -87 0
18 -44 -48 88 0
18 -44 -48 -88 0
-10 23 48 89 0
-10 23 48 -89 0
-10 22 42 90 0
-10 22 42 -90 0
-10 -22 -23 91 0
-10 -22 -23 -91 0
10 -30 48 92 0
10 -30 48 -92 0
2 21 22 93 0
2 21 22 -93 0
21 22 48 94 0
21 22 48 -94 0
10 21 -22 95 0
10 21 -22 -95 0
-21 47 49 96 0
-21 47 49 -96 0
34 38 49 97 0
34 38 49 -97 0
34 -38 -47 98 0
34 -38 -47 -98 0
10 -34 49 99 0
10 -34 49 -99 0
-21 -41 -49 100 0
-21 -41 -49 -100 0
-21 36 -49 101 0
-21 36 -49 -101 0
-33 -36 -49 102 0
-33 -36 -49 -102 0
-19 33 -36 103 0
-19 33 -36 -103 0
13 25 37 104 0
13 25 37 -104 0
13 -36 37 105 0
13 -36 37 -105 0
-13 33 37 106 0
-13 33 37 -106 0
-15 33 -37 107 0
-15 33 -37 -107 0
15 32 -37 108 0
15 32 -37 -108 0
11 -32 -37 109 0
11 -32 -37 -109 0
-11 -12 -32 110 0
-11 -12 -32 -110 0
20 27 -32 111 0
20 27 -32 -111 0
-20 25 27 112 0
-20 25 27 -112 0
-11 -20 27 113 0
-11 -20 27 -113 0
-11 -22 -27 114 0
-11 -22 -27 -114 0
6 30 47 115 0
6 30 47 -115 0
6 30 -47 116 0
6 30 -47 -116 0
12 23 -30 117 0
12 23 -30 -117 0
6 12 -23 118 0
6 12 -23 -118 0
-27 -38 39 119 0
-27 -38 39 -119 0
-6 -27 -38 120 0
-6 -27 -38 -120 0
-6 38 -44 121 0
-6 38 -44 -121 0
-5 38 -44 122 0
-5 38 -44 -122 0
-6 26 44 123 0
-6 26 44 -123 0
-23 -26 44 124 0
-23 -26 44 -124 0
8 16 50 125 0
8 16 50 -125 0
8 -26 50 126 0
8 -26 50 -126 0
-8 44 50 127 0
-8 44 50 -127 0
-13 -26 -50 128 0
-13 -26 -50 -128 0
19 23 -40 129 0
19 23 -40 -129 0
-19 -40 41 130 0
-19 -40 41 -130 0
-19 -40 -50 131 0
-19 -40 -50 -131 0
16 40 47 132 0
16 40 47 -132 0
16 40 -50 133 0
16 40 -50 -133 0
-16 35 40 134 0
-16 35 40 -134 0
-16 -35 -46 135 0
-16 -35 -46 -135 0
4 -16 -34 136 0
4 -16 -34 -136 0
-4 -34 -35 137 0
-4 -34 -35 -137 0
-29 34 -35 138 0
-29 34 -35 -138 0
-31 32 39 139 0
-31 32 39 -139 0
11 -24 29 140 0
11 -24 29 -140 0
-5 35 45 141 0
-5 35 45 -141 0
-12 26 142 143 0
-12 26 142 -143 0
-12 26 -142 144 0
-12 26 -142 -144 0
-12 14 -18 145 0
-12 14 -18 -145 0
11 -18 28 146 0
11 -18 28 -146 0
19 -33 39 147 0
19 -33 39 -147 0
-1 -33 -42 148 0
-1 -33 -42 -148 0
28 29 35 149 0
28 29 35 -149 0
19 32 36 150 0
19 32 36 -150 0
9 12 -24 151 0
9 12 -24 -151 0
9 36 -42 152 0
9 36 -42 -152 0

